750
750
600
600
599
596
596
595
594
594
593
592
592
592
591
590
589
589
589
589
588
588
588
588
587
586
585
585
585
584
583
583
582
582
582
582
581
581
581
579
578
577
577
577
576
574
574
574
573
572
572
571
571
571
571
571
570
570
569
569
569
568
568
568
568
566
564
564
562
561
561
560
559
558
557
557
557
556
556
556
555
555
555
554
554
553
553
552
552
550
550
549
549
548
546
546
546
545
542
542
541
541
540
540
540
540
538
538
537
536
536
536
534
534
534
533
532
531
530
530
530
530
530
529
529
529
528
528
528
528
527
527
526
525
524
523
520
520
519
517
516
516
516
516
515
513
512
512
512
511
511
510
510
509
509
507
507
507
507
506
506
505
504
503
503
502
501
500
500
499
499
499
498
498
498
497
496
496
496
495
495
493
493
492
492
491
490
490
489
489
488
488
488
488
488
486
486
486
486
484
484
484
483
483
482
481
480
479
478
477
475
474
474
474
472
472
471
470
470
469
468
467
467
466
466
465
463
463
462
460
460
460
459
459
459
458
458
458
457
455
455
455
454
454
454
453
453
453
452
452
452
451
451
450
450
449
448
448
448
447
447
446
445
445
443
442
442
441
440
440
438
438
438
438
438
438
438
437
437
437
436
436
436
436
435
435
434
433
433
432
432
431
431
430
429
428
427
426
425
425
424
424
423
423
422
421
421
420
419
418
418
417
417
417
415
415
414
414
413
413
412
411
411
409
409
409
408
407
407
407
406
406
406
405
405
405
405
405
405
403
403
402
402
402
401
401
400
398
397
396
396
396
395
394
393
393
392
392
392
392
391
391
390
390
390
390
389
388
388
387
387
386
386
385
384
383
383
383
383
382
381
381
381
380
379
379
379
376
376
375
375
375
375
375
374
374
374
373
372
371
371
370
369
368
368
368
367
364
364
364
364
363
363
362
360
360
360
358
357
357
356
356
356
355
355
353
353
351
351
351
350
350
349
349
348
348
348
347
347
346
346
345
344
344
344
343
342
340
339
338
337
336
336
336
335
335
335
335
335
333
333
332
332
332
331
330
329
328
327
327
325
325
324
324
323
322
322
322
322
322
321
321
320
320
319
318
318
318
318
318
317
316
316
313
313
313
313
312
312
312
312
311
311
310
310
310
306
306
306
305
305
305
303
302
301
301
300
299
299
299
298
297
297
296
295
295
294
293
293
292
291
290
290
288
287
287
285
285
282
281
281
280
280
280
280
279
279
278
277
276
276
275
275
275
274
274
273
272
271
271
269
268
268
267
267
266
266
266
266
266
266
264
264
264
264
263
263
263
260
259
259
259
259
258
257
257
256
255
254
253
253
252
252
250
249
249
248
247
246
245
245
244
242
241
241
241
240
240
240
235
235
235
235
235
234
234
233
233
233
233
232
231
231
230
228
228
227
226
225
225
225
225
224
223
221
221
220
220
218
216
215
215
215
214
212
212
212
212
211
211
211
210
209
208
208
207
206
206
206
204
203
203
202
201
198
198
198
198
197
197
197
194
194
191
191
191
191
189
188
188
188
188
187
187
186
185
185
181
181
181
180
179
179
179
177
177
176
176
176
175
175
174
173
173
172
171
171
169
169
168
168
167
167
167
166
165
165
165
164
164
164
164
163
162
162
162
161
160
160
159
159
159
158
158
158
158
158
157
157
156
156
155
154
154
154
152
152
152
152
151
151
150
